p td 120 120
0 12
0 2
2 102
3 20
3 107
3 42
3 67
3 100
4 93
5 31
5 28
5 115
6 30
7 48
8 36
8 95
9 21
9 87
9 69
9 34
9 119
10 16
11 119
11 38
11 84
12 15
12 77
12 71
12 31
13 109
13 17
13 57
13 26
14 22
14 29
14 39
14 109
16 87
16 103
17 109
17 78
18 65
18 31
19 74
20 113
20 66
21 63
22 64
22 29
22 63
24 91
24 53
27 75
28 118
30 64
30 96
30 40
31 119
31 102
31 36
32 79
33 45
35 100
35 42
37 41
37 79
37 118
37 39
38 97
39 58
39 91
40 72
40 62
41 109
41 95
42 99
42 69
42 76
43 64
44 99
44 104
44 119
44 98
45 81
47 111
48 87
54 62
55 91
55 96
56 111
56 67
58 110
58 79
59 86
59 81
59 88
60 73
63 103
67 91
68 69
69 119
75 84
75 119
75 76
76 92
78 119
80 83
82 92
84 117
90 96
90 114
92 110
93 109
93 95
94 104
94 100
94 118
99 110
106 107
106 112
